# Monolayer MoS2: computation of the total energy

# Unit cell
acell  3.15 3.15 20 angstrom
rprim
 0.5 -0.86602540378 0
 0.5  0.86602540378 0
 0.0  0.0           1

# Atom types
ntypat 2
znucl 42 16
pp_dirpath "./persudo/"
pseudos "Mo.psp8, S.psp8"

# Atomic structure
natom 3
typat 1 2 2
xred
  0.000000  0.000000  0.500000
  0.333333  0.666667  0.545972
  0.666667  0.333333  0.454028

# Plane-wave basis
ecut  12.0

# K-point sampling
kptopt 1
ngkpt 6 6 1
nshiftk 1
shiftk 0.0 0.0 0.0

# SCF settings
nstep 10
toldfe 1.0d-6
diemac 12.0
