# Monolayer MoS2: computation of the total energy

ndtset 4 1
# Unit cell
acell  3.15 3.15 20 angstrom
ecut:? 10    ecut+? 5 
nsym 1
chksymbreak 0

#first dataset: find optimal bond length
natom?1 3
ionmov?1 2
ntime?1 10
tolmxf?1 5.0d-4 #stopping when residual forces

xred
  1/3  2/3  0.0 
  2/3  1/3  -0.0919442350
  2/3  1/3  0.0919442350

  nband?1 1

rprim
 0.5 -0.86602540378 0
 0.5  0.86602540378 0
 0.0  0.0           1

# Atom types
ntypat 2
znucl 42 16
pp_dirpath "./persudo/"
pseudos "Mo.psp8, S.psp8"

# Atomic structure
natom 3
typat 1 2 2

#defination of k-point grid
kptopt 1
ngkpt 3 3 1

#defination of scf 
nstep 10